<?xml version="1.0" encoding="UTF-8"?><osil xmlns="os.optimizationservices.org"   xmlns:xsi="http://www.w3.org/2001/XMLSchema-instance" xsi:schemaLocation="os.optimizationservices.org http://www.optimizationservices.org/schemas/2.0/OSiL.xsd" ><instanceHeader><name>q_20_0_50_4</name></instanceHeader><instanceData><variables numberOfVariables="20"><var name="x1" ub="1"/><var name="x2" ub="1"/><var name="x3" ub="1"/><var name="x4" ub="1"/><var name="x5" ub="1"/><var name="x6" ub="1"/><var name="x7" ub="1"/><var name="x8" ub="1"/><var name="x9" ub="1"/><var name="x10" ub="1"/><var name="x11" ub="1"/><var name="x12" ub="1"/><var name="x13" ub="1"/><var name="x14" ub="1"/><var name="x15" ub="1"/><var name="x16" ub="1"/><var name="x17" ub="1"/><var name="x18" ub="1"/><var name="x19" ub="1"/><var name="x20" ub="1"/></variables><objectives numberOfObjectives="1"><obj maxOrMin="min" name="defObj_x21" numberOfObjCoef="20"><coef idx="0">.9451</coef><coef idx="1">.3845</coef><coef idx="2">-.931</coef><coef idx="3">-.7231</coef><coef idx="4">-.1203</coef><coef idx="5">.6813</coef><coef idx="6">-.1748</coef><coef idx="7">-.893</coef><coef idx="8">.3339</coef><coef idx="9">.1493</coef><coef idx="10">-8.21e-2</coef><coef idx="11">.497</coef><coef idx="12">-.9345</coef><coef idx="13">.4136</coef><coef idx="14">.7518</coef><coef idx="15">-.343</coef><coef idx="16">-.4928</coef><coef idx="17">.7599</coef><coef idx="18">.6319</coef><coef idx="19">-.8854</coef></obj></objectives><quadraticCoefficients  numberOfQuadraticTerms="105" ><qTerm  idx="-1"  idxOne="0"  idxTwo="2"  coef="-.4309"/><qTerm  idx="-1"  idxOne="0"  idxTwo="5"  coef="-.4487"/><qTerm  idx="-1"  idxOne="0"  idxTwo="6"  coef="1.3471"/><qTerm  idx="-1"  idxOne="0"  idxTwo="8"  coef="1.9761"/><qTerm  idx="-1"  idxOne="0"  idxTwo="9"  coef="5.88e-2"/><qTerm  idx="-1"  idxOne="0"  idxTwo="10"  coef="1.4765"/><qTerm  idx="-1"  idxOne="0"  idxTwo="13"  coef="-.1881"/><qTerm  idx="-1"  idxOne="0"  idxTwo="17"  coef="-1.2467"/><qTerm  idx="-1"  idxOne="0"  idxTwo="18"  coef="1.8035"/><qTerm  idx="-1"  idxOne="0"  idxTwo="19"  coef=".3934"/><qTerm  idx="-1"  idxOne="1"  idxTwo="5"  coef="-5.37e-2"/><qTerm  idx="-1"  idxOne="1"  idxTwo="6"  coef="-.6642"/><qTerm  idx="-1"  idxOne="1"  idxTwo="8"  coef="1.0377"/><qTerm  idx="-1"  idxOne="1"  idxTwo="11"  coef="1.5221"/><qTerm  idx="-1"  idxOne="1"  idxTwo="13"  coef="-1.2235"/><qTerm  idx="-1"  idxOne="1"  idxTwo="16"  coef="-.6475"/><qTerm  idx="-1"  idxOne="2"  idxTwo="3"  coef="5.56e-2"/><qTerm  idx="-1"  idxOne="2"  idxTwo="6"  coef="-.464"/><qTerm  idx="-1"  idxOne="2"  idxTwo="7"  coef=".3047"/><qTerm  idx="-1"  idxOne="2"  idxTwo="8"  coef=".7028"/><qTerm  idx="-1"  idxOne="2"  idxTwo="11"  coef="-1.7274"/><qTerm  idx="-1"  idxOne="2"  idxTwo="12"  coef="1.9176"/><qTerm  idx="-1"  idxOne="2"  idxTwo="13"  coef="1.7284"/><qTerm  idx="-1"  idxOne="2"  idxTwo="14"  coef=".9282"/><qTerm  idx="-1"  idxOne="2"  idxTwo="15"  coef=".849"/><qTerm  idx="-1"  idxOne="2"  idxTwo="16"  coef="1.884"/><qTerm  idx="-1"  idxOne="2"  idxTwo="17"  coef="-1.5402"/><qTerm  idx="-1"  idxOne="2"  idxTwo="18"  coef="-.5951"/><qTerm  idx="-1"  idxOne="3"  idxTwo="4"  coef=".1476"/><qTerm  idx="-1"  idxOne="3"  idxTwo="5"  coef="1.1567"/><qTerm  idx="-1"  idxOne="3"  idxTwo="6"  coef="-.3829"/><qTerm  idx="-1"  idxOne="3"  idxTwo="7"  coef=".5906"/><qTerm  idx="-1"  idxOne="3"  idxTwo="9"  coef=".8699"/><qTerm  idx="-1"  idxOne="3"  idxTwo="12"  coef="-.6379"/><qTerm  idx="-1"  idxOne="3"  idxTwo="16"  coef=".4055"/><qTerm  idx="-1"  idxOne="3"  idxTwo="17"  coef="-1.1187"/><qTerm  idx="-1"  idxOne="3"  idxTwo="18"  coef="1.1755"/><qTerm  idx="-1"  idxOne="4"  idxTwo="5"  coef="-.4344"/><qTerm  idx="-1"  idxOne="4"  idxTwo="10"  coef="-.261"/><qTerm  idx="-1"  idxOne="4"  idxTwo="14"  coef="1.1785"/><qTerm  idx="-1"  idxOne="4"  idxTwo="18"  coef="-.3543"/><qTerm  idx="-1"  idxOne="5"  idxTwo="5"  coef="-1.9971"/><qTerm  idx="-1"  idxOne="5"  idxTwo="6"  coef="-1.6493"/><qTerm  idx="-1"  idxOne="5"  idxTwo="9"  coef="-1.821"/><qTerm  idx="-1"  idxOne="5"  idxTwo="10"  coef="1.538"/><qTerm  idx="-1"  idxOne="5"  idxTwo="12"  coef="1.0648"/><qTerm  idx="-1"  idxOne="5"  idxTwo="13"  coef="1.4585"/><qTerm  idx="-1"  idxOne="6"  idxTwo="6"  coef="-1.8159"/><qTerm  idx="-1"  idxOne="6"  idxTwo="9"  coef="-.6705"/><qTerm  idx="-1"  idxOne="6"  idxTwo="10"  coef="1.4957"/><qTerm  idx="-1"  idxOne="6"  idxTwo="11"  coef=".8247"/><qTerm  idx="-1"  idxOne="6"  idxTwo="12"  coef="1.1652"/><qTerm  idx="-1"  idxOne="6"  idxTwo="14"  coef="-1.2294"/><qTerm  idx="-1"  idxOne="6"  idxTwo="15"  coef="1.0753"/><qTerm  idx="-1"  idxOne="6"  idxTwo="17"  coef="1.8684"/><qTerm  idx="-1"  idxOne="6"  idxTwo="18"  coef=".6758"/><qTerm  idx="-1"  idxOne="7"  idxTwo="7"  coef=".9589"/><qTerm  idx="-1"  idxOne="7"  idxTwo="9"  coef=".6602"/><qTerm  idx="-1"  idxOne="7"  idxTwo="10"  coef="1.4986"/><qTerm  idx="-1"  idxOne="7"  idxTwo="12"  coef="-1.5578"/><qTerm  idx="-1"  idxOne="7"  idxTwo="13"  coef=".8082"/><qTerm  idx="-1"  idxOne="7"  idxTwo="15"  coef="-.7114"/><qTerm  idx="-1"  idxOne="7"  idxTwo="17"  coef="-.277"/><qTerm  idx="-1"  idxOne="7"  idxTwo="18"  coef="-.6476"/><qTerm  idx="-1"  idxOne="7"  idxTwo="19"  coef=".1015"/><qTerm  idx="-1"  idxOne="8"  idxTwo="9"  coef="-.3114"/><qTerm  idx="-1"  idxOne="8"  idxTwo="10"  coef="-.7893"/><qTerm  idx="-1"  idxOne="8"  idxTwo="13"  coef="1.6745"/><qTerm  idx="-1"  idxOne="8"  idxTwo="14"  coef="1.5052"/><qTerm  idx="-1"  idxOne="8"  idxTwo="15"  coef=".5772"/><qTerm  idx="-1"  idxOne="8"  idxTwo="17"  coef=".3001"/><qTerm  idx="-1"  idxOne="9"  idxTwo="12"  coef=".8316"/><qTerm  idx="-1"  idxOne="9"  idxTwo="13"  coef="1.4387"/><qTerm  idx="-1"  idxOne="9"  idxTwo="14"  coef="1.3781"/><qTerm  idx="-1"  idxOne="9"  idxTwo="15"  coef="-1.5949"/><qTerm  idx="-1"  idxOne="9"  idxTwo="16"  coef="1.3116"/><qTerm  idx="-1"  idxOne="9"  idxTwo="17"  coef="-9.47e-2"/><qTerm  idx="-1"  idxOne="10"  idxTwo="13"  coef="-.3421"/><qTerm  idx="-1"  idxOne="10"  idxTwo="14"  coef=".1004"/><qTerm  idx="-1"  idxOne="10"  idxTwo="16"  coef=".7349"/><qTerm  idx="-1"  idxOne="10"  idxTwo="17"  coef=".3039"/><qTerm  idx="-1"  idxOne="10"  idxTwo="19"  coef="-1.8765"/><qTerm  idx="-1"  idxOne="11"  idxTwo="11"  coef=".7252"/><qTerm  idx="-1"  idxOne="11"  idxTwo="13"  coef=".8148"/><qTerm  idx="-1"  idxOne="11"  idxTwo="14"  coef="-.289"/><qTerm  idx="-1"  idxOne="11"  idxTwo="15"  coef="-1.7573"/><qTerm  idx="-1"  idxOne="11"  idxTwo="16"  coef="1.5826"/><qTerm  idx="-1"  idxOne="11"  idxTwo="18"  coef=".9869"/><qTerm  idx="-1"  idxOne="12"  idxTwo="12"  coef=".5295"/><qTerm  idx="-1"  idxOne="12"  idxTwo="13"  coef=".6547"/><qTerm  idx="-1"  idxOne="12"  idxTwo="15"  coef=".7326"/><qTerm  idx="-1"  idxOne="12"  idxTwo="18"  coef="-1.4146"/><qTerm  idx="-1"  idxOne="12"  idxTwo="19"  coef="-1.1297"/><qTerm  idx="-1"  idxOne="13"  idxTwo="14"  coef="1.3636"/><qTerm  idx="-1"  idxOne="13"  idxTwo="15"  coef="-1.2282"/><qTerm  idx="-1"  idxOne="13"  idxTwo="16"  coef="1.812"/><qTerm  idx="-1"  idxOne="13"  idxTwo="18"  coef=".2909"/><qTerm  idx="-1"  idxOne="13"  idxTwo="19"  coef="-.8583"/><qTerm  idx="-1"  idxOne="14"  idxTwo="15"  coef="2.67e-2"/><qTerm  idx="-1"  idxOne="14"  idxTwo="17"  coef="8.6e-3"/><qTerm  idx="-1"  idxOne="14"  idxTwo="18"  coef=".9008"/><qTerm  idx="-1"  idxOne="15"  idxTwo="15"  coef="-.4933"/><qTerm  idx="-1"  idxOne="15"  idxTwo="19"  coef="-.1287"/><qTerm  idx="-1"  idxOne="16"  idxTwo="17"  coef="-.6494"/><qTerm  idx="-1"  idxOne="19"  idxTwo="19"  coef="-1.4689"/></quadraticCoefficients></instanceData></osil>
